245 5
10 10 10 10 10 

0 0 0 0 0 0 1 2 
0 0 0 0 0 0 5 3 4 5 11 12 
4 0 0 0 0 1 2 7 6 
9 0 0 0 0 8 3 10 9 7 
7 0 0 0 0 5 3 10 9 7 
9 0 0 0 0 6 3 10 9 8 
6 0 0 0 0 2 1 8 
10 0 0 0 0 4 1 13 
10 0 0 0 0 5 1 13 
2 0 0 0 0 10 1 13 
6 0 0 0 0 5 1 13 
9 0 0 0 0 4 1 13 
0 0 0 0 0 0 4 14 26 38 50 
0 0 0 0 0 0 4 15 16 17 18 
6 1 0 0 0 0 3 21 20 19 
9 4 0 0 0 0 3 21 20 19 
10 5 0 0 0 0 2 21 20 
6 9 0 0 0 0 2 22 19 
2 3 0 0 0 0 2 24 23 
7 2 0 0 0 0 2 24 22 
10 8 0 0 0 0 2 23 22 
1 5 0 0 0 0 1 25 
7 7 0 0 0 0 1 25 
6 6 0 0 0 0 1 25 
0 0 0 0 0 0 1 62 
0 0 0 0 0 0 5 27 28 31 32 36 
1 0 0 0 1 0 3 35 30 29 
7 0 0 0 4 0 2 34 29 
6 0 0 0 3 0 1 33 
1 0 0 0 7 0 1 33 
7 0 0 0 8 0 1 34 
10 0 0 0 2 0 1 33 
10 0 0 0 6 0 1 37 
5 0 0 0 7 0 1 37 
2 0 0 0 6 0 1 37 
10 0 0 0 6 0 1 37 
0 0 0 0 0 0 1 62 
0 0 0 0 0 0 3 39 41 42 
4 0 1 0 0 0 3 46 43 40 
9 0 9 0 0 0 3 48 47 45 
5 0 3 0 0 0 2 46 44 
10 0 6 0 0 0 2 45 44 
9 0 3 0 0 0 1 44 
6 0 6 0 0 0 1 49 
2 0 6 0 0 0 1 49 
3 0 7 0 0 0 1 49 
3 0 5 0 0 0 1 49 
7 0 4 0 0 0 1 49 
0 0 0 0 0 0 1 62 
0 0 0 0 0 0 5 51 52 53 54 58 
1 0 0 0 1 0 2 57 55 
1 0 0 0 4 0 2 60 57 
8 0 0 0 2 0 2 60 56 
5 0 0 0 7 0 2 60 56 
6 0 0 0 6 0 2 60 59 
9 0 0 0 5 0 1 59 
8 0 0 0 10 0 1 59 
1 0 0 0 6 0 1 59 
8 0 0 0 5 0 1 61 
2 0 0 0 4 0 1 61 
0 0 0 0 0 0 1 62 
0 0 0 0 0 0 5 63 75 87 99 111 
0 0 0 0 0 0 4 64 65 72 73 
10 0 1 0 0 0 4 71 70 69 67 
4 0 2 0 0 0 3 71 68 66 
1 0 5 0 0 0 2 70 69 
1 0 6 0 0 0 1 68 
1 0 5 0 0 0 1 74 
4 0 9 0 0 0 1 74 
10 0 7 0 0 0 1 74 
8 0 5 0 0 0 1 74 
3 0 4 0 0 0 1 74 
2 0 6 0 0 0 1 74 
0 0 0 0 0 0 1 123 
0 0 0 0 0 0 5 76 77 78 80 81 
9 0 0 1 0 0 4 85 83 82 79 
7 0 0 9 0 0 3 84 83 82 
3 0 0 1 0 0 2 83 82 
9 0 0 7 0 0 1 84 
2 0 0 7 0 0 1 83 
5 0 0 5 0 0 1 82 
4 0 0 3 0 0 1 86 
5 0 0 6 0 0 1 86 
10 0 0 4 0 0 1 86 
9 0 0 7 0 0 1 86 
0 0 0 0 0 0 1 123 
0 0 0 0 0 0 2 88 89 
8 0 0 0 1 0 2 91 90 
5 0 0 0 3 0 1 90 
5 0 0 0 3 0 6 97 96 95 94 93 92 
8 0 0 0 4 0 6 97 96 95 94 93 92 
4 0 0 0 3 0 1 98 
5 0 0 0 5 0 1 98 
3 0 0 0 7 0 1 98 
4 0 0 0 7 0 1 98 
3 0 0 0 7 0 1 98 
1 0 0 0 10 0 1 98 
0 0 0 0 0 0 1 123 
0 0 0 0 0 0 4 100 101 102 109 
3 0 0 0 0 1 5 108 107 106 104 103 
10 0 0 0 0 6 3 107 105 104 
4 0 0 0 0 7 2 106 104 
5 0 0 0 0 6 1 105 
2 0 0 0 0 4 1 110 
9 0 0 0 0 7 1 110 
7 0 0 0 0 5 1 110 
2 0 0 0 0 5 1 110 
9 0 0 0 0 6 1 110 
7 0 0 0 0 3 1 110 
0 0 0 0 0 0 1 123 
0 0 0 0 0 0 5 112 113 115 120 121 
1 0 0 1 0 0 4 119 118 117 116 
4 0 0 3 0 0 2 118 114 
4 0 0 7 0 0 1 116 
1 0 0 6 0 0 1 117 
3 0 0 6 0 0 1 122 
7 0 0 4 0 0 1 122 
1 0 0 7 0 0 1 122 
1 0 0 4 0 0 1 122 
1 0 0 5 0 0 1 122 
9 0 0 7 0 0 1 122 
0 0 0 0 0 0 1 123 
0 0 0 0 0 0 5 124 136 148 160 172 
0 0 0 0 0 0 2 125 126 
3 1 0 0 0 0 4 130 129 128 127 
5 5 0 0 0 0 4 130 129 128 127 
7 3 0 0 0 0 4 134 133 132 131 
3 6 0 0 0 0 4 134 133 132 131 
9 5 0 0 0 0 4 134 133 132 131 
2 5 0 0 0 0 4 134 133 132 131 
5 8 0 0 0 0 1 135 
8 3 0 0 0 0 1 135 
1 6 0 0 0 0 1 135 
7 8 0 0 0 0 1 135 
0 0 0 0 0 0 1 184 
0 0 0 0 0 0 8 137 138 139 141 143 144 145 146 
5 0 1 0 0 0 1 140 
10 0 4 0 0 0 1 140 
7 0 4 0 0 0 1 140 
9 0 6 0 0 0 1 142 
6 0 9 0 0 0 1 142 
1 0 4 0 0 0 1 147 
7 0 9 0 0 0 1 147 
8 0 4 0 0 0 1 147 
4 0 3 0 0 0 1 147 
8 0 6 0 0 0 1 147 
0 0 0 0 0 0 1 184 
0 0 0 0 0 0 5 149 150 151 152 155 
5 0 1 0 0 0 3 158 156 153 
5 0 7 0 0 0 2 154 153 
3 0 5 0 0 0 2 158 156 
1 0 7 0 0 0 2 157 156 
2 0 7 0 0 0 1 157 
9 0 3 0 0 0 1 156 
8 0 3 0 0 0 1 156 
8 0 5 0 0 0 1 159 
3 0 4 0 0 0 1 159 
1 0 8 0 0 0 1 159 
0 0 0 0 0 0 1 184 
0 0 0 0 0 0 5 161 162 163 164 167 
5 0 0 4 0 0 3 170 166 165 
10 0 0 6 0 0 3 170 166 165 
10 0 0 7 0 0 2 170 168 
2 0 0 7 0 0 2 169 168 
5 0 0 10 0 0 1 169 
1 0 0 2 0 0 1 168 
2 0 0 3 0 0 1 168 
4 0 0 3 0 0 1 171 
2 0 0 5 0 0 1 171 
7 0 0 3 0 0 1 171 
0 0 0 0 0 0 1 184 
0 0 0 0 0 0 8 173 175 176 177 179 180 181 182 
9 0 0 0 1 0 1 174 
3 0 0 0 8 0 1 178 
3 0 0 0 6 0 1 178 
3 0 0 0 7 0 1 178 
5 0 0 0 3 0 1 178 
1 0 0 0 1 0 1 183 
7 0 0 0 6 0 1 183 
7 0 0 0 9 0 1 183 
6 0 0 0 3 0 1 183 
8 0 0 0 6 0 1 183 
0 0 0 0 0 0 1 184 
0 0 0 0 0 0 5 185 197 209 221 233 
0 0 0 0 0 0 4 186 189 190 191 
7 0 0 0 1 0 3 195 188 187 
10 0 0 0 7 0 3 194 193 192 
5 0 0 0 8 0 2 194 192 
6 0 0 0 2 0 2 193 192 
9 0 0 0 4 0 2 193 192 
2 0 0 0 7 0 1 192 
7 0 0 0 5 0 1 196 
3 0 0 0 5 0 1 196 
1 0 0 0 6 0 1 196 
1 0 0 0 5 0 1 196 
0 0 0 0 0 0 1 245 
0 0 0 0 0 0 4 198 199 201 202 
3 0 0 0 0 1 2 207 200 
2 0 0 0 0 2 5 207 206 205 204 203 
4 0 0 0 0 4 4 206 205 204 203 
9 0 0 0 0 7 3 205 204 203 
9 0 0 0 0 8 1 203 
7 0 0 0 0 6 1 208 
7 0 0 0 0 3 1 208 
3 0 0 0 0 6 1 208 
10 0 0 0 0 5 1 208 
5 0 0 0 0 8 1 208 
0 0 0 0 0 0 1 245 
0 0 0 0 0 0 4 210 211 213 214 
10 0 0 0 1 0 5 219 217 216 215 212 
8 0 0 0 5 0 2 217 215 
3 0 0 0 6 0 1 218 
10 0 0 0 2 0 1 216 
7 0 0 0 9 0 1 215 
10 0 0 0 3 0 1 220 
5 0 0 0 7 0 1 220 
4 0 0 0 5 0 1 220 
6 0 0 0 6 0 1 220 
6 0 0 0 6 0 1 220 
0 0 0 0 0 0 1 245 
0 0 0 0 0 0 6 222 223 224 225 227 228 
1 0 0 1 0 0 3 231 230 226 
8 0 0 3 0 0 3 231 230 229 
8 0 0 3 0 0 2 231 226 
3 0 0 8 0 0 1 226 
1 0 0 9 0 0 1 229 
5 0 0 6 0 0 1 230 
9 0 0 8 0 0 1 229 
4 0 0 4 0 0 1 232 
2 0 0 3 0 0 1 232 
8 0 0 5 0 0 1 232 
0 0 0 0 0 0 1 245 
0 0 0 0 0 0 5 234 236 237 242 243 
5 0 0 0 1 0 2 238 235 
4 0 0 0 4 0 3 241 240 239 
5 0 0 0 4 0 3 241 240 239 
2 0 0 0 8 0 2 240 238 
10 0 0 0 3 0 1 239 
7 0 0 0 10 0 1 244 
4 0 0 0 5 0 1 244 
8 0 0 0 4 0 1 244 
6 0 0 0 4 0 1 244 
9 0 0 0 7 0 1 244 
0 0 0 0 0 0 1 245 
0 0 0 0 0 0 0 
